<number of tasks>
50

<cycle time>
1000

<order strength>
0.599


<task times>
1 131
2 255
3 61
4 89
5 87
6 207
7 131
8 175
9 71
10 69
11 159
12 148
13 56
14 180
15 209
16 156
17 79
18 146
19 95
20 206
21 225
22 164
23 250
24 71
25 151
26 99
27 198
28 61
29 128
30 133
31 88
32 75
33 73
34 189
35 97
36 55
37 233
38 269
39 30
40 115
41 170
42 93
43 41
44 221
45 94
46 91
47 33
48 102
49 26
50 161

<precedence relations>
1,5
2,7
3,6
3,9
4,8
4,9
5,10
6,11
7,12
8,13
8,14
9,13
9,14
10,18
11,15
12,16
13,17
13,18
13,19
13,20
14,17
14,18
14,19
14,20
15,22
16,23
17,21
17,23
17,24
17,25
18,23
18,25
19,23
19,24
19,25
20,23
20,24
20,25
21,26
22,27
23,28
23,29
23,30
23,31
24,29
24,30
24,31
25,29
25,34
25,35
26,33
27,34
28,32
29,38
30,33
31,33
31,34
31,35
32,36
33,37
33,38
34,37
34,49
35,47
36,41
37,39
37,45
38,40
38,42
38,45
39,43
40,44
41,45
42,46
42,47
43,48
44,48
45,50
47,49

<end>
